benchmark/results/graph__10-1000-0.10-03_8/graph__10-1000-0.10-03_8_Quinton_Benders_sub.lp
\ This file has been generated by DOcplex
\ ENCODING=ISO-8859-1
\Problem name: Quinton Benders_dual_sub

Minimize
 obj: 0.001137656428 pi_nr_a0 + 0.001631321370 pi_nr_a1
      + 0.000850340136 pi_nr_a2 + 0.001432664756 pi_nr_a3
      + 0.001307189542 pi_nr_a4 + 0.001175088132 pi_nr_a5
      + 0.001290322581 pi_nr_a6 + 0.002188183807 pi_nr_a7
      + 0.001644736842 pi_nr_a8 + 0.001231527094 pi_nr_a9 + pi_p_a0_a2
      + pi_p_a0_a5 + pi_p_a8_a6 + pi_p_a8_a9 + pi_p_a7_a5 + pi_p_a7_a0
      + pi_d_a0_a1_proc_2 + 2393 pi_d_a0_a1_proc_0 + 2393 pi_d_a0_a1_proc_1
      + 2392 pi_d_a1_a0_proc_0 + 2392 pi_d_a1_a0_proc_1 + 2393 pi_d_a0_a2_proc_2
      + 2393 pi_d_a0_a2_proc_0 + 2393 pi_d_a0_a3_proc_2 + 3589 pi_d_a0_a3_proc_0
      + 2393 pi_d_a0_a3_proc_1 + 1196 pi_d_a3_a0_proc_0 + pi_d_a0_a4_proc_2
      + 2393 pi_d_a0_a4_proc_0 + 2393 pi_d_a0_a4_proc_1 + 2392 pi_d_a4_a0_proc_0
      + 2392 pi_d_a4_a0_proc_1 + 2393 pi_d_a0_a5_proc_0 + 2392 pi_d_a0_a6_proc_0
      + 2392 pi_d_a0_a6_proc_1 + pi_d_a6_a0_proc_2 + 2393 pi_d_a6_a0_proc_0
      + 2393 pi_d_a6_a0_proc_1 + 2392 pi_d_a0_a7_proc_0 + 2392 pi_d_a0_a7_proc_1
      + pi_d_a7_a0_proc_2 + 2393 pi_d_a7_a0_proc_0 + 2393 pi_d_a7_a0_proc_1
      + 1196 pi_d_a0_a8_proc_0 + 2393 pi_d_a8_a0_proc_2 + 3589 pi_d_a8_a0_proc_0
      + 2393 pi_d_a8_a0_proc_1 + pi_d_a0_a9_proc_2 + 1197 pi_d_a0_a9_proc_0
      + pi_d_a0_a9_proc_1 + 2392 pi_d_a9_a0_proc_2 + 3588 pi_d_a9_a0_proc_0
      + 2392 pi_d_a9_a0_proc_1 + 2393 pi_d_a1_a2_proc_2 + 2393 pi_d_a1_a2_proc_0
      + 2393 pi_d_a1_a3_proc_2 + 3589 pi_d_a1_a3_proc_0 + 2393 pi_d_a1_a3_proc_1
      + 1196 pi_d_a3_a1_proc_0 + pi_d_a1_a4_proc_2 + 2393 pi_d_a1_a4_proc_0
      + 2393 pi_d_a1_a4_proc_1 + 2392 pi_d_a4_a1_proc_0 + 2392 pi_d_a4_a1_proc_1
      + 2393 pi_d_a1_a5_proc_0 + 2392 pi_d_a1_a6_proc_0 + 2392 pi_d_a1_a6_proc_1
      + pi_d_a6_a1_proc_2 + 2393 pi_d_a6_a1_proc_0 + 2393 pi_d_a6_a1_proc_1
      + 2392 pi_d_a1_a7_proc_0 + 2392 pi_d_a1_a7_proc_1 + pi_d_a7_a1_proc_2
      + 2393 pi_d_a7_a1_proc_0 + 2393 pi_d_a7_a1_proc_1 + 1195 pi_d_a1_a8_proc_2
      + 2391 pi_d_a1_a8_proc_0 + 1195 pi_d_a1_a8_proc_1 + 1198 pi_d_a8_a1_proc_2
      + 2394 pi_d_a8_a1_proc_0 + 1198 pi_d_a8_a1_proc_1 + 2392 pi_d_a1_a9_proc_2
      + 3588 pi_d_a1_a9_proc_0 + 2392 pi_d_a1_a9_proc_1 + pi_d_a9_a1_proc_2
      + 1197 pi_d_a9_a1_proc_0 + pi_d_a9_a1_proc_1 + 3588 pi_d_a2_a3_proc_2
      + 2392 pi_d_a2_a3_proc_0 + 1197 pi_d_a3_a2_proc_2 + pi_d_a3_a2_proc_0
      + 2393 pi_d_a4_a2_proc_2 + 2393 pi_d_a4_a2_proc_0 + pi_d_a5_a2_proc_0
      + 2393 pi_d_a6_a2_proc_2 + 2393 pi_d_a6_a2_proc_0 + 1926 pi_d_a2_a7_proc_2
      + 1926 pi_d_a2_a7_proc_0 + 467 pi_d_a7_a2_proc_2 + 467 pi_d_a7_a2_proc_0
      + 3587 pi_d_a2_a8_proc_2 + 2391 pi_d_a2_a8_proc_0 + 1198 pi_d_a8_a2_proc_2
      + 2 pi_d_a8_a2_proc_0 + 3588 pi_d_a2_a9_proc_2 + 2392 pi_d_a2_a9_proc_0
      + 1197 pi_d_a9_a2_proc_2 + pi_d_a9_a2_proc_0 + 2392 pi_d_a3_a4_proc_2
      + 3588 pi_d_a3_a4_proc_0 + 2392 pi_d_a3_a4_proc_1 + pi_d_a4_a3_proc_2
      + 1197 pi_d_a4_a3_proc_0 + pi_d_a4_a3_proc_1 + 2392 pi_d_a3_a5_proc_0
      + pi_d_a5_a3_proc_0 + 1196 pi_d_a3_a6_proc_0 + 2393 pi_d_a6_a3_proc_2
      + 3589 pi_d_a6_a3_proc_0 + 2393 pi_d_a6_a3_proc_1 + 2391 pi_d_a3_a7_proc_2
      + 3587 pi_d_a3_a7_proc_0 + 2391 pi_d_a3_a7_proc_1 + 2 pi_d_a7_a3_proc_2
      + 1198 pi_d_a7_a3_proc_0 + 2 pi_d_a7_a3_proc_1 + 2392 pi_d_a3_a8_proc_2
      + 2392 pi_d_a3_a8_proc_0 + 2393 pi_d_a8_a3_proc_2 + 2393 pi_d_a8_a3_proc_0
      + pi_d_a8_a3_proc_1 + 2392 pi_d_a3_a9_proc_2 + 2392 pi_d_a3_a9_proc_0
      + 2393 pi_d_a9_a3_proc_2 + 2393 pi_d_a9_a3_proc_0 + pi_d_a9_a3_proc_1
      + 2393 pi_d_a4_a5_proc_0 + 2392 pi_d_a4_a6_proc_0 + 2392 pi_d_a4_a6_proc_1
      + pi_d_a6_a4_proc_2 + 2393 pi_d_a6_a4_proc_0 + 2393 pi_d_a6_a4_proc_1
      + 2392 pi_d_a4_a7_proc_0 + 2392 pi_d_a4_a7_proc_1 + pi_d_a7_a4_proc_2
      + 2393 pi_d_a7_a4_proc_0 + 2393 pi_d_a7_a4_proc_1 + 2392 pi_d_a4_a8_proc_2
      + 3588 pi_d_a4_a8_proc_0 + 2392 pi_d_a4_a8_proc_1 + pi_d_a8_a4_proc_2
      + 1197 pi_d_a8_a4_proc_0 + pi_d_a8_a4_proc_1 + 2392 pi_d_a4_a9_proc_2
      + 3588 pi_d_a4_a9_proc_0 + 2392 pi_d_a4_a9_proc_1 + pi_d_a9_a4_proc_2
      + 1197 pi_d_a9_a4_proc_0 + pi_d_a9_a4_proc_1 + 2392 pi_d_a5_a6_proc_0
      + pi_d_a6_a5_proc_0 + 2391 pi_d_a5_a7_proc_0 + 2 pi_d_a7_a5_proc_0
      + 2392 pi_d_a5_a8_proc_0 + pi_d_a8_a5_proc_0 + 2392 pi_d_a5_a9_proc_0
      + pi_d_a9_a5_proc_0 + 2392 pi_d_a6_a7_proc_0 + 2392 pi_d_a6_a7_proc_1
      + pi_d_a7_a6_proc_2 + 2393 pi_d_a7_a6_proc_0 + 2393 pi_d_a7_a6_proc_1
      + 2392 pi_d_a6_a8_proc_2 + 3588 pi_d_a6_a8_proc_0 + 2392 pi_d_a6_a8_proc_1
      + pi_d_a8_a6_proc_2 + 1197 pi_d_a8_a6_proc_0 + pi_d_a8_a6_proc_1
      + 2393 pi_d_a6_a9_proc_2 + 3589 pi_d_a6_a9_proc_0 + 2393 pi_d_a6_a9_proc_1
      + 1196 pi_d_a9_a6_proc_0 + pi_d_a7_a8_proc_2 + 1197 pi_d_a7_a8_proc_0
      + pi_d_a7_a8_proc_1 + 2392 pi_d_a8_a7_proc_2 + 3588 pi_d_a8_a7_proc_0
      + 2392 pi_d_a8_a7_proc_1 + 2185 pi_d_a7_a9_proc_2 + 3381 pi_d_a7_a9_proc_0
      + 2185 pi_d_a7_a9_proc_1 + 208 pi_d_a9_a7_proc_2 + 1404 pi_d_a9_a7_proc_0
      + 208 pi_d_a9_a7_proc_1 + 2393 pi_d_a8_a9_proc_2 + 2393 pi_d_a8_a9_proc_0
      + pi_d_a8_a9_proc_1 + 2392 pi_d_a9_a8_proc_2 + 2392 pi_d_a9_a8_proc_0
      + pi_y2_a0_proc_2 + pi_y2_a1_proc_2 + pi_y2_a2_proc_0 + pi_y2_a3_proc_1
      + pi_y2_a4_proc_2 + pi_y2_a5_proc_0 + pi_y2_a6_proc_2 + pi_y2_a7_proc_2
      + pi_y2_a8_proc_1 + pi_y2_a9_proc_1
Subject To
 c1: pi_nr_a0 + pi_nr_a1 + pi_nr_a2 + pi_nr_a3 + pi_nr_a4 + pi_nr_a5 + pi_nr_a6
     + pi_nr_a7 + pi_nr_a8 + pi_nr_a9 - pi_y1_a0 - pi_y1_a1 - pi_y1_a2
     - pi_y1_a3 - pi_y1_a4 - pi_y1_a5 - pi_y1_a6 - pi_y1_a7 - pi_y1_a8
     - pi_y1_a9 >= 1
 c2: - pi_p_a1_a0 + pi_p_a0_a2 + pi_p_a0_a5 + pi_p_a0_a6 - pi_p_a7_a0
     + pi_d_a0_a1_proc_2 + pi_d_a0_a1_proc_0 + pi_d_a0_a1_proc_1
     - pi_d_a1_a0_proc_2 - pi_d_a1_a0_proc_0 - pi_d_a1_a0_proc_1
     + pi_d_a0_a2_proc_2 + pi_d_a0_a2_proc_0 - pi_d_a2_a0_proc_2
     - pi_d_a2_a0_proc_0 + pi_d_a0_a3_proc_2 + pi_d_a0_a3_proc_0
     + pi_d_a0_a3_proc_1 - pi_d_a3_a0_proc_2 - pi_d_a3_a0_proc_0
     - pi_d_a3_a0_proc_1 + pi_d_a0_a4_proc_2 + pi_d_a0_a4_proc_0
     + pi_d_a0_a4_proc_1 - pi_d_a4_a0_proc_2 - pi_d_a4_a0_proc_0
     - pi_d_a4_a0_proc_1 + pi_d_a0_a5_proc_0 - pi_d_a5_a0_proc_0
     + pi_d_a0_a6_proc_2 + pi_d_a0_a6_proc_0 + pi_d_a0_a6_proc_1
     - pi_d_a6_a0_proc_2 - pi_d_a6_a0_proc_0 - pi_d_a6_a0_proc_1
     + pi_d_a0_a7_proc_2 + pi_d_a0_a7_proc_0 + pi_d_a0_a7_proc_1
     - pi_d_a7_a0_proc_2 - pi_d_a7_a0_proc_0 - pi_d_a7_a0_proc_1
     + pi_d_a0_a8_proc_2 + pi_d_a0_a8_proc_0 + pi_d_a0_a8_proc_1
     - pi_d_a8_a0_proc_2 - pi_d_a8_a0_proc_0 - pi_d_a8_a0_proc_1
     + pi_d_a0_a9_proc_2 + pi_d_a0_a9_proc_0 + pi_d_a0_a9_proc_1
     - pi_d_a9_a0_proc_2 - pi_d_a9_a0_proc_0 - pi_d_a9_a0_proc_1 >= 0
 c3: 951 pi_p_a0_a2 + 951 pi_p_a0_a5 + 951 pi_p_a0_a6 + 951 pi_d_a0_a1_proc_0
     + 951 pi_d_a0_a2_proc_0 + 951 pi_d_a0_a3_proc_0 + 951 pi_d_a0_a4_proc_0
     + 951 pi_d_a0_a5_proc_0 + 951 pi_d_a0_a6_proc_0 + 951 pi_d_a0_a7_proc_0
     + 951 pi_d_a0_a8_proc_0 + 951 pi_d_a0_a9_proc_0 + pi_y1_a0
     + pi_y2_a0_proc_0 >= 0
 c4: 1018 pi_p_a0_a2 + 1018 pi_p_a0_a5 + 1018 pi_p_a0_a6
     + 1018 pi_d_a0_a1_proc_1 + 1018 pi_d_a0_a3_proc_1 + 1018 pi_d_a0_a4_proc_1
     + 1018 pi_d_a0_a6_proc_1 + 1018 pi_d_a0_a7_proc_1 + 1018 pi_d_a0_a8_proc_1
     + 1018 pi_d_a0_a9_proc_1 + pi_y1_a0 + pi_y2_a0_proc_1 >= 0
 c5: 879 pi_p_a0_a2 + 879 pi_p_a0_a5 + 879 pi_p_a0_a6 + 879 pi_d_a0_a1_proc_2
     + 879 pi_d_a0_a2_proc_2 + 879 pi_d_a0_a3_proc_2 + 879 pi_d_a0_a4_proc_2
     + 879 pi_d_a0_a6_proc_2 + 879 pi_d_a0_a7_proc_2 + 879 pi_d_a0_a8_proc_2
     + 879 pi_d_a0_a9_proc_2 + pi_y1_a0 + pi_y2_a0_proc_2 >= 0
 c6: pi_p_a1_a0 - pi_p_a3_a1 - pi_p_a4_a1 - pi_d_a0_a1_proc_2
     - pi_d_a0_a1_proc_0 - pi_d_a0_a1_proc_1 + pi_d_a1_a0_proc_2
     + pi_d_a1_a0_proc_0 + pi_d_a1_a0_proc_1 + pi_d_a1_a2_proc_2
     + pi_d_a1_a2_proc_0 - pi_d_a2_a1_proc_2 - pi_d_a2_a1_proc_0
     + pi_d_a1_a3_proc_2 + pi_d_a1_a3_proc_0 + pi_d_a1_a3_proc_1
     - pi_d_a3_a1_proc_2 - pi_d_a3_a1_proc_0 - pi_d_a3_a1_proc_1
     + pi_d_a1_a4_proc_2 + pi_d_a1_a4_proc_0 + pi_d_a1_a4_proc_1
     - pi_d_a4_a1_proc_2 - pi_d_a4_a1_proc_0 - pi_d_a4_a1_proc_1
     + pi_d_a1_a5_proc_0 - pi_d_a5_a1_proc_0 + pi_d_a1_a6_proc_2
     + pi_d_a1_a6_proc_0 + pi_d_a1_a6_proc_1 - pi_d_a6_a1_proc_2
     - pi_d_a6_a1_proc_0 - pi_d_a6_a1_proc_1 + pi_d_a1_a7_proc_2
     + pi_d_a1_a7_proc_0 + pi_d_a1_a7_proc_1 - pi_d_a7_a1_proc_2
     - pi_d_a7_a1_proc_0 - pi_d_a7_a1_proc_1 + pi_d_a1_a8_proc_2
     + pi_d_a1_a8_proc_0 + pi_d_a1_a8_proc_1 - pi_d_a8_a1_proc_2
     - pi_d_a8_a1_proc_0 - pi_d_a8_a1_proc_1 + pi_d_a1_a9_proc_2
     + pi_d_a1_a9_proc_0 + pi_d_a1_a9_proc_1 - pi_d_a9_a1_proc_2
     - pi_d_a9_a1_proc_0 - pi_d_a9_a1_proc_1 >= 0
 c7: 1102 pi_p_a1_a0 + 1102 pi_d_a1_a0_proc_0 + 1102 pi_d_a1_a2_proc_0
     + 1102 pi_d_a1_a3_proc_0 + 1102 pi_d_a1_a4_proc_0 + 1102 pi_d_a1_a5_proc_0
     + 1102 pi_d_a1_a6_proc_0 + 1102 pi_d_a1_a7_proc_0 + 1102 pi_d_a1_a8_proc_0
     + 1102 pi_d_a1_a9_proc_0 + pi_y1_a1 + pi_y2_a1_proc_0 >= 0
 c8: 785 pi_p_a1_a0 + 785 pi_d_a1_a0_proc_1 + 785 pi_d_a1_a3_proc_1
     + 785 pi_d_a1_a4_proc_1 + 785 pi_d_a1_a6_proc_1 + 785 pi_d_a1_a7_proc_1
     + 785 pi_d_a1_a8_proc_1 + 785 pi_d_a1_a9_proc_1 + pi_y1_a1
     + pi_y2_a1_proc_1 >= 0
 c9: 613 pi_p_a1_a0 + 613 pi_d_a1_a0_proc_2 + 613 pi_d_a1_a2_proc_2
     + 613 pi_d_a1_a3_proc_2 + 613 pi_d_a1_a4_proc_2 + 613 pi_d_a1_a6_proc_2
     + 613 pi_d_a1_a7_proc_2 + 613 pi_d_a1_a8_proc_2 + 613 pi_d_a1_a9_proc_2
     + pi_y1_a1 + pi_y2_a1_proc_2 >= 0
 c10: - pi_p_a0_a2 + pi_p_a2_a3 - pi_d_a0_a2_proc_2 - pi_d_a0_a2_proc_0
      + pi_d_a2_a0_proc_2 + pi_d_a2_a0_proc_0 - pi_d_a1_a2_proc_2
      - pi_d_a1_a2_proc_0 + pi_d_a2_a1_proc_2 + pi_d_a2_a1_proc_0
      + pi_d_a2_a3_proc_2 + pi_d_a2_a3_proc_0 - pi_d_a3_a2_proc_2
      - pi_d_a3_a2_proc_0 + pi_d_a2_a4_proc_2 + pi_d_a2_a4_proc_0
      - pi_d_a4_a2_proc_2 - pi_d_a4_a2_proc_0 + pi_d_a2_a5_proc_0
      - pi_d_a5_a2_proc_0 + pi_d_a2_a6_proc_2 + pi_d_a2_a6_proc_0
      - pi_d_a6_a2_proc_2 - pi_d_a6_a2_proc_0 + pi_d_a2_a7_proc_2
      + pi_d_a2_a7_proc_0 - pi_d_a7_a2_proc_2 - pi_d_a7_a2_proc_0
      + pi_d_a2_a8_proc_2 + pi_d_a2_a8_proc_0 - pi_d_a8_a2_proc_2
      - pi_d_a8_a2_proc_0 + pi_d_a2_a9_proc_2 + pi_d_a2_a9_proc_0
      - pi_d_a9_a2_proc_2 - pi_d_a9_a2_proc_0 >= 0
 c11: 1176 pi_p_a2_a3 + 1176 pi_d_a2_a0_proc_0 + 1176 pi_d_a2_a1_proc_0
      + 1176 pi_d_a2_a3_proc_0 + 1176 pi_d_a2_a4_proc_0 + 1176 pi_d_a2_a5_proc_0
      + 1176 pi_d_a2_a6_proc_0 + 1176 pi_d_a2_a7_proc_0 + 1176 pi_d_a2_a8_proc_0
      + 1176 pi_d_a2_a9_proc_0 + pi_y1_a2 + pi_y2_a2_proc_0 >= 0
 c12: 1092 pi_p_a2_a3 + 1092 pi_d_a2_a0_proc_2 + 1092 pi_d_a2_a1_proc_2
      + 1092 pi_d_a2_a3_proc_2 + 1092 pi_d_a2_a4_proc_2 + 1092 pi_d_a2_a6_proc_2
      + 1092 pi_d_a2_a7_proc_2 + 1092 pi_d_a2_a8_proc_2 + 1092 pi_d_a2_a9_proc_2
      + pi_y1_a2 + pi_y2_a2_proc_2 >= 0
 c13: pi_p_a3_a1 - pi_p_a2_a3 - pi_d_a0_a3_proc_2 - pi_d_a0_a3_proc_0
      - pi_d_a0_a3_proc_1 + pi_d_a3_a0_proc_2 + pi_d_a3_a0_proc_0
      + pi_d_a3_a0_proc_1 - pi_d_a1_a3_proc_2 - pi_d_a1_a3_proc_0
      - pi_d_a1_a3_proc_1 + pi_d_a3_a1_proc_2 + pi_d_a3_a1_proc_0
      + pi_d_a3_a1_proc_1 - pi_d_a2_a3_proc_2 - pi_d_a2_a3_proc_0
      + pi_d_a3_a2_proc_2 + pi_d_a3_a2_proc_0 + pi_d_a3_a4_proc_2
      + pi_d_a3_a4_proc_0 + pi_d_a3_a4_proc_1 - pi_d_a4_a3_proc_2
      - pi_d_a4_a3_proc_0 - pi_d_a4_a3_proc_1 + pi_d_a3_a5_proc_0
      - pi_d_a5_a3_proc_0 + pi_d_a3_a6_proc_2 + pi_d_a3_a6_proc_0
      + pi_d_a3_a6_proc_1 - pi_d_a6_a3_proc_2 - pi_d_a6_a3_proc_0
      - pi_d_a6_a3_proc_1 + pi_d_a3_a7_proc_2 + pi_d_a3_a7_proc_0
      + pi_d_a3_a7_proc_1 - pi_d_a7_a3_proc_2 - pi_d_a7_a3_proc_0
      - pi_d_a7_a3_proc_1 + pi_d_a3_a8_proc_2 + pi_d_a3_a8_proc_0
      + pi_d_a3_a8_proc_1 - pi_d_a8_a3_proc_2 - pi_d_a8_a3_proc_0
      - pi_d_a8_a3_proc_1 + pi_d_a3_a9_proc_2 + pi_d_a3_a9_proc_0
      + pi_d_a3_a9_proc_1 - pi_d_a9_a3_proc_2 - pi_d_a9_a3_proc_0
      - pi_d_a9_a3_proc_1 >= 0
 c14: 1109 pi_p_a3_a1 + 1109 pi_d_a3_a0_proc_0 + 1109 pi_d_a3_a1_proc_0
      + 1109 pi_d_a3_a2_proc_0 + 1109 pi_d_a3_a4_proc_0 + 1109 pi_d_a3_a5_proc_0
      + 1109 pi_d_a3_a6_proc_0 + 1109 pi_d_a3_a7_proc_0 + 1109 pi_d_a3_a8_proc_0
      + 1109 pi_d_a3_a9_proc_0 + pi_y1_a3 + pi_y2_a3_proc_0 >= 0
 c15: 698 pi_p_a3_a1 + 698 pi_d_a3_a0_proc_1 + 698 pi_d_a3_a1_proc_1
      + 698 pi_d_a3_a4_proc_1 + 698 pi_d_a3_a6_proc_1 + 698 pi_d_a3_a7_proc_1
      + 698 pi_d_a3_a8_proc_1 + 698 pi_d_a3_a9_proc_1 + pi_y1_a3
      + pi_y2_a3_proc_1 >= 0
 c16: 1148 pi_p_a3_a1 + 1148 pi_d_a3_a0_proc_2 + 1148 pi_d_a3_a1_proc_2
      + 1148 pi_d_a3_a2_proc_2 + 1148 pi_d_a3_a4_proc_2 + 1148 pi_d_a3_a6_proc_2
      + 1148 pi_d_a3_a7_proc_2 + 1148 pi_d_a3_a8_proc_2 + 1148 pi_d_a3_a9_proc_2
      + pi_y1_a3 + pi_y2_a3_proc_2 >= 0
 c17: pi_p_a4_a1 - pi_p_a5_a4 - pi_d_a0_a4_proc_2 - pi_d_a0_a4_proc_0
      - pi_d_a0_a4_proc_1 + pi_d_a4_a0_proc_2 + pi_d_a4_a0_proc_0
      + pi_d_a4_a0_proc_1 - pi_d_a1_a4_proc_2 - pi_d_a1_a4_proc_0
      - pi_d_a1_a4_proc_1 + pi_d_a4_a1_proc_2 + pi_d_a4_a1_proc_0
      + pi_d_a4_a1_proc_1 - pi_d_a2_a4_proc_2 - pi_d_a2_a4_proc_0
      + pi_d_a4_a2_proc_2 + pi_d_a4_a2_proc_0 - pi_d_a3_a4_proc_2
      - pi_d_a3_a4_proc_0 - pi_d_a3_a4_proc_1 + pi_d_a4_a3_proc_2
      + pi_d_a4_a3_proc_0 + pi_d_a4_a3_proc_1 + pi_d_a4_a5_proc_0
      - pi_d_a5_a4_proc_0 + pi_d_a4_a6_proc_2 + pi_d_a4_a6_proc_0
      + pi_d_a4_a6_proc_1 - pi_d_a6_a4_proc_2 - pi_d_a6_a4_proc_0
      - pi_d_a6_a4_proc_1 + pi_d_a4_a7_proc_2 + pi_d_a4_a7_proc_0
      + pi_d_a4_a7_proc_1 - pi_d_a7_a4_proc_2 - pi_d_a7_a4_proc_0
      - pi_d_a7_a4_proc_1 + pi_d_a4_a8_proc_2 + pi_d_a4_a8_proc_0
      + pi_d_a4_a8_proc_1 - pi_d_a8_a4_proc_2 - pi_d_a8_a4_proc_0
      - pi_d_a8_a4_proc_1 + pi_d_a4_a9_proc_2 + pi_d_a4_a9_proc_0
      + pi_d_a4_a9_proc_1 - pi_d_a9_a4_proc_2 - pi_d_a9_a4_proc_0
      - pi_d_a9_a4_proc_1 >= 0
 c18: 974 pi_p_a4_a1 + 974 pi_d_a4_a0_proc_0 + 974 pi_d_a4_a1_proc_0
      + 974 pi_d_a4_a2_proc_0 + 974 pi_d_a4_a3_proc_0 + 974 pi_d_a4_a5_proc_0
      + 974 pi_d_a4_a6_proc_0 + 974 pi_d_a4_a7_proc_0 + 974 pi_d_a4_a8_proc_0
      + 974 pi_d_a4_a9_proc_0 + pi_y1_a4 + pi_y2_a4_proc_0 >= 0
 c19: 760 pi_p_a4_a1 + 760 pi_d_a4_a0_proc_1 + 760 pi_d_a4_a1_proc_1
      + 760 pi_d_a4_a3_proc_1 + 760 pi_d_a4_a6_proc_1 + 760 pi_d_a4_a7_proc_1
      + 760 pi_d_a4_a8_proc_1 + 760 pi_d_a4_a9_proc_1 + pi_y1_a4
      + pi_y2_a4_proc_1 >= 0
 c20: 765 pi_p_a4_a1 + 765 pi_d_a4_a0_proc_2 + 765 pi_d_a4_a1_proc_2
      + 765 pi_d_a4_a2_proc_2 + 765 pi_d_a4_a3_proc_2 + 765 pi_d_a4_a6_proc_2
      + 765 pi_d_a4_a7_proc_2 + 765 pi_d_a4_a8_proc_2 + 765 pi_d_a4_a9_proc_2
      + pi_y1_a4 + pi_y2_a4_proc_2 >= 0
 c21: - pi_p_a0_a5 + pi_p_a5_a7 - pi_p_a7_a5 + pi_p_a5_a4 - pi_d_a0_a5_proc_0
      + pi_d_a5_a0_proc_0 - pi_d_a1_a5_proc_0 + pi_d_a5_a1_proc_0
      - pi_d_a2_a5_proc_0 + pi_d_a5_a2_proc_0 - pi_d_a3_a5_proc_0
      + pi_d_a5_a3_proc_0 - pi_d_a4_a5_proc_0 + pi_d_a5_a4_proc_0
      + pi_d_a5_a6_proc_0 - pi_d_a6_a5_proc_0 + pi_d_a5_a7_proc_0
      - pi_d_a7_a5_proc_0 + pi_d_a5_a8_proc_0 - pi_d_a8_a5_proc_0
      + pi_d_a5_a9_proc_0 - pi_d_a9_a5_proc_0 >= 0
 c22: 851 pi_p_a5_a7 + 851 pi_p_a5_a4 + 851 pi_d_a5_a0_proc_0
      + 851 pi_d_a5_a1_proc_0 + 851 pi_d_a5_a2_proc_0 + 851 pi_d_a5_a3_proc_0
      + 851 pi_d_a5_a4_proc_0 + 851 pi_d_a5_a6_proc_0 + 851 pi_d_a5_a7_proc_0
      + 851 pi_d_a5_a8_proc_0 + 851 pi_d_a5_a9_proc_0 + pi_y1_a5
      + pi_y2_a5_proc_0 >= 0
 c23: - pi_p_a0_a6 + pi_p_a6_a7 - pi_p_a8_a6 - pi_p_a9_a6 + pi_p_a6_a8
      - pi_d_a0_a6_proc_2 - pi_d_a0_a6_proc_0 - pi_d_a0_a6_proc_1
      + pi_d_a6_a0_proc_2 + pi_d_a6_a0_proc_0 + pi_d_a6_a0_proc_1
      - pi_d_a1_a6_proc_2 - pi_d_a1_a6_proc_0 - pi_d_a1_a6_proc_1
      + pi_d_a6_a1_proc_2 + pi_d_a6_a1_proc_0 + pi_d_a6_a1_proc_1
      - pi_d_a2_a6_proc_2 - pi_d_a2_a6_proc_0 + pi_d_a6_a2_proc_2
      + pi_d_a6_a2_proc_0 - pi_d_a3_a6_proc_2 - pi_d_a3_a6_proc_0
      - pi_d_a3_a6_proc_1 + pi_d_a6_a3_proc_2 + pi_d_a6_a3_proc_0
      + pi_d_a6_a3_proc_1 - pi_d_a4_a6_proc_2 - pi_d_a4_a6_proc_0
      - pi_d_a4_a6_proc_1 + pi_d_a6_a4_proc_2 + pi_d_a6_a4_proc_0
      + pi_d_a6_a4_proc_1 - pi_d_a5_a6_proc_0 + pi_d_a6_a5_proc_0
      + pi_d_a6_a7_proc_2 + pi_d_a6_a7_proc_0 + pi_d_a6_a7_proc_1
      - pi_d_a7_a6_proc_2 - pi_d_a7_a6_proc_0 - pi_d_a7_a6_proc_1
      + pi_d_a6_a8_proc_2 + pi_d_a6_a8_proc_0 + pi_d_a6_a8_proc_1
      - pi_d_a8_a6_proc_2 - pi_d_a8_a6_proc_0 - pi_d_a8_a6_proc_1
      + pi_d_a6_a9_proc_2 + pi_d_a6_a9_proc_0 + pi_d_a6_a9_proc_1
      - pi_d_a9_a6_proc_2 - pi_d_a9_a6_proc_0 - pi_d_a9_a6_proc_1 >= 0
 c24: 1190 pi_p_a6_a7 + 1190 pi_p_a6_a8 + 1190 pi_d_a6_a0_proc_0
      + 1190 pi_d_a6_a1_proc_0 + 1190 pi_d_a6_a2_proc_0 + 1190 pi_d_a6_a3_proc_0
      + 1190 pi_d_a6_a4_proc_0 + 1190 pi_d_a6_a5_proc_0 + 1190 pi_d_a6_a7_proc_0
      + 1190 pi_d_a6_a8_proc_0 + 1190 pi_d_a6_a9_proc_0 + pi_y1_a6
      + pi_y2_a6_proc_0 >= 0
 c25: 1191 pi_p_a6_a7 + 1191 pi_p_a6_a8 + 1191 pi_d_a6_a0_proc_1
      + 1191 pi_d_a6_a1_proc_1 + 1191 pi_d_a6_a3_proc_1 + 1191 pi_d_a6_a4_proc_1
      + 1191 pi_d_a6_a7_proc_1 + 1191 pi_d_a6_a8_proc_1 + 1191 pi_d_a6_a9_proc_1
      + pi_y1_a6 + pi_y2_a6_proc_1 >= 0
 c26: 775 pi_p_a6_a7 + 775 pi_p_a6_a8 + 775 pi_d_a6_a0_proc_2
      + 775 pi_d_a6_a1_proc_2 + 775 pi_d_a6_a2_proc_2 + 775 pi_d_a6_a3_proc_2
      + 775 pi_d_a6_a4_proc_2 + 775 pi_d_a6_a7_proc_2 + 775 pi_d_a6_a8_proc_2
      + 775 pi_d_a6_a9_proc_2 + pi_y1_a6 + pi_y2_a6_proc_2 >= 0
 c27: - pi_p_a6_a7 - pi_p_a5_a7 + pi_p_a7_a5 + pi_p_a7_a0 - pi_d_a0_a7_proc_2
      - pi_d_a0_a7_proc_0 - pi_d_a0_a7_proc_1 + pi_d_a7_a0_proc_2
      + pi_d_a7_a0_proc_0 + pi_d_a7_a0_proc_1 - pi_d_a1_a7_proc_2
      - pi_d_a1_a7_proc_0 - pi_d_a1_a7_proc_1 + pi_d_a7_a1_proc_2
      + pi_d_a7_a1_proc_0 + pi_d_a7_a1_proc_1 - pi_d_a2_a7_proc_2
      - pi_d_a2_a7_proc_0 + pi_d_a7_a2_proc_2 + pi_d_a7_a2_proc_0
      - pi_d_a3_a7_proc_2 - pi_d_a3_a7_proc_0 - pi_d_a3_a7_proc_1
      + pi_d_a7_a3_proc_2 + pi_d_a7_a3_proc_0 + pi_d_a7_a3_proc_1
      - pi_d_a4_a7_proc_2 - pi_d_a4_a7_proc_0 - pi_d_a4_a7_proc_1
      + pi_d_a7_a4_proc_2 + pi_d_a7_a4_proc_0 + pi_d_a7_a4_proc_1
      - pi_d_a5_a7_proc_0 + pi_d_a7_a5_proc_0 - pi_d_a6_a7_proc_2
      - pi_d_a6_a7_proc_0 - pi_d_a6_a7_proc_1 + pi_d_a7_a6_proc_2
      + pi_d_a7_a6_proc_0 + pi_d_a7_a6_proc_1 + pi_d_a7_a8_proc_2
      + pi_d_a7_a8_proc_0 + pi_d_a7_a8_proc_1 - pi_d_a8_a7_proc_2
      - pi_d_a8_a7_proc_0 - pi_d_a8_a7_proc_1 + pi_d_a7_a9_proc_2
      + pi_d_a7_a9_proc_0 + pi_d_a7_a9_proc_1 - pi_d_a9_a7_proc_2
      - pi_d_a9_a7_proc_0 - pi_d_a9_a7_proc_1 >= 0
 c28: 963 pi_p_a7_a5 + 963 pi_p_a7_a0 + 963 pi_d_a7_a0_proc_0
      + 963 pi_d_a7_a1_proc_0 + 963 pi_d_a7_a2_proc_0 + 963 pi_d_a7_a3_proc_0
      + 963 pi_d_a7_a4_proc_0 + 963 pi_d_a7_a5_proc_0 + 963 pi_d_a7_a6_proc_0
      + 963 pi_d_a7_a8_proc_0 + 963 pi_d_a7_a9_proc_0 + pi_y1_a7
      + pi_y2_a7_proc_0 >= 0
 c29: 1038 pi_p_a7_a5 + 1038 pi_p_a7_a0 + 1038 pi_d_a7_a0_proc_1
      + 1038 pi_d_a7_a1_proc_1 + 1038 pi_d_a7_a3_proc_1 + 1038 pi_d_a7_a4_proc_1
      + 1038 pi_d_a7_a6_proc_1 + 1038 pi_d_a7_a8_proc_1 + 1038 pi_d_a7_a9_proc_1
      + pi_y1_a7 + pi_y2_a7_proc_1 >= 0
 c30: 457 pi_p_a7_a5 + 457 pi_p_a7_a0 + 457 pi_d_a7_a0_proc_2
      + 457 pi_d_a7_a1_proc_2 + 457 pi_d_a7_a2_proc_2 + 457 pi_d_a7_a3_proc_2
      + 457 pi_d_a7_a4_proc_2 + 457 pi_d_a7_a6_proc_2 + 457 pi_d_a7_a8_proc_2
      + 457 pi_d_a7_a9_proc_2 + pi_y1_a7 + pi_y2_a7_proc_2 >= 0
 c31: pi_p_a8_a6 + pi_p_a8_a9 - pi_p_a6_a8 - pi_d_a0_a8_proc_2
      - pi_d_a0_a8_proc_0 - pi_d_a0_a8_proc_1 + pi_d_a8_a0_proc_2
      + pi_d_a8_a0_proc_0 + pi_d_a8_a0_proc_1 - pi_d_a1_a8_proc_2
      - pi_d_a1_a8_proc_0 - pi_d_a1_a8_proc_1 + pi_d_a8_a1_proc_2
      + pi_d_a8_a1_proc_0 + pi_d_a8_a1_proc_1 - pi_d_a2_a8_proc_2
      - pi_d_a2_a8_proc_0 + pi_d_a8_a2_proc_2 + pi_d_a8_a2_proc_0
      - pi_d_a3_a8_proc_2 - pi_d_a3_a8_proc_0 - pi_d_a3_a8_proc_1
      + pi_d_a8_a3_proc_2 + pi_d_a8_a3_proc_0 + pi_d_a8_a3_proc_1
      - pi_d_a4_a8_proc_2 - pi_d_a4_a8_proc_0 - pi_d_a4_a8_proc_1
      + pi_d_a8_a4_proc_2 + pi_d_a8_a4_proc_0 + pi_d_a8_a4_proc_1
      - pi_d_a5_a8_proc_0 + pi_d_a8_a5_proc_0 - pi_d_a6_a8_proc_2
      - pi_d_a6_a8_proc_0 - pi_d_a6_a8_proc_1 + pi_d_a8_a6_proc_2
      + pi_d_a8_a6_proc_0 + pi_d_a8_a6_proc_1 - pi_d_a7_a8_proc_2
      - pi_d_a7_a8_proc_0 - pi_d_a7_a8_proc_1 + pi_d_a8_a7_proc_2
      + pi_d_a8_a7_proc_0 + pi_d_a8_a7_proc_1 + pi_d_a8_a9_proc_2
      + pi_d_a8_a9_proc_0 + pi_d_a8_a9_proc_1 - pi_d_a9_a8_proc_2
      - pi_d_a9_a8_proc_0 - pi_d_a9_a8_proc_1 >= 0
 c32: 1196 pi_p_a8_a6 + 1196 pi_p_a8_a9 + 1196 pi_d_a8_a0_proc_0
      + 1196 pi_d_a8_a1_proc_0 + 1196 pi_d_a8_a2_proc_0 + 1196 pi_d_a8_a3_proc_0
      + 1196 pi_d_a8_a4_proc_0 + 1196 pi_d_a8_a5_proc_0 + 1196 pi_d_a8_a6_proc_0
      + 1196 pi_d_a8_a7_proc_0 + 1196 pi_d_a8_a9_proc_0 + pi_y1_a8
      + pi_y2_a8_proc_0 >= 0
 c33: 608 pi_p_a8_a6 + 608 pi_p_a8_a9 + 608 pi_d_a8_a0_proc_1
      + 608 pi_d_a8_a1_proc_1 + 608 pi_d_a8_a3_proc_1 + 608 pi_d_a8_a4_proc_1
      + 608 pi_d_a8_a6_proc_1 + 608 pi_d_a8_a7_proc_1 + 608 pi_d_a8_a9_proc_1
      + pi_y1_a8 + pi_y2_a8_proc_1 >= 0
 c34: 859 pi_p_a8_a6 + 859 pi_p_a8_a9 + 859 pi_d_a8_a0_proc_2
      + 859 pi_d_a8_a1_proc_2 + 859 pi_d_a8_a2_proc_2 + 859 pi_d_a8_a3_proc_2
      + 859 pi_d_a8_a4_proc_2 + 859 pi_d_a8_a6_proc_2 + 859 pi_d_a8_a7_proc_2
      + 859 pi_d_a8_a9_proc_2 + pi_y1_a8 + pi_y2_a8_proc_2 >= 0
 c35: pi_p_a9_a6 - pi_p_a8_a9 - pi_d_a0_a9_proc_2 - pi_d_a0_a9_proc_0
      - pi_d_a0_a9_proc_1 + pi_d_a9_a0_proc_2 + pi_d_a9_a0_proc_0
      + pi_d_a9_a0_proc_1 - pi_d_a1_a9_proc_2 - pi_d_a1_a9_proc_0
      - pi_d_a1_a9_proc_1 + pi_d_a9_a1_proc_2 + pi_d_a9_a1_proc_0
      + pi_d_a9_a1_proc_1 - pi_d_a2_a9_proc_2 - pi_d_a2_a9_proc_0
      + pi_d_a9_a2_proc_2 + pi_d_a9_a2_proc_0 - pi_d_a3_a9_proc_2
      - pi_d_a3_a9_proc_0 - pi_d_a3_a9_proc_1 + pi_d_a9_a3_proc_2
      + pi_d_a9_a3_proc_0 + pi_d_a9_a3_proc_1 - pi_d_a4_a9_proc_2
      - pi_d_a4_a9_proc_0 - pi_d_a4_a9_proc_1 + pi_d_a9_a4_proc_2
      + pi_d_a9_a4_proc_0 + pi_d_a9_a4_proc_1 - pi_d_a5_a9_proc_0
      + pi_d_a9_a5_proc_0 - pi_d_a6_a9_proc_2 - pi_d_a6_a9_proc_0
      - pi_d_a6_a9_proc_1 + pi_d_a9_a6_proc_2 + pi_d_a9_a6_proc_0
      + pi_d_a9_a6_proc_1 - pi_d_a7_a9_proc_2 - pi_d_a7_a9_proc_0
      - pi_d_a7_a9_proc_1 + pi_d_a9_a7_proc_2 + pi_d_a9_a7_proc_0
      + pi_d_a9_a7_proc_1 - pi_d_a8_a9_proc_2 - pi_d_a8_a9_proc_0
      - pi_d_a8_a9_proc_1 + pi_d_a9_a8_proc_2 + pi_d_a9_a8_proc_0
      + pi_d_a9_a8_proc_1 >= 0
 c36: 1159 pi_p_a9_a6 + 1159 pi_d_a9_a0_proc_0 + 1159 pi_d_a9_a1_proc_0
      + 1159 pi_d_a9_a2_proc_0 + 1159 pi_d_a9_a3_proc_0 + 1159 pi_d_a9_a4_proc_0
      + 1159 pi_d_a9_a5_proc_0 + 1159 pi_d_a9_a6_proc_0 + 1159 pi_d_a9_a7_proc_0
      + 1159 pi_d_a9_a8_proc_0 + pi_y1_a9 + pi_y2_a9_proc_0 >= 0
 c37: 812 pi_p_a9_a6 + 812 pi_d_a9_a0_proc_1 + 812 pi_d_a9_a1_proc_1
      + 812 pi_d_a9_a3_proc_1 + 812 pi_d_a9_a4_proc_1 + 812 pi_d_a9_a6_proc_1
      + 812 pi_d_a9_a7_proc_1 + 812 pi_d_a9_a8_proc_1 + pi_y1_a9
      + pi_y2_a9_proc_1 >= 0
 c38: 995 pi_p_a9_a6 + 995 pi_d_a9_a0_proc_2 + 995 pi_d_a9_a1_proc_2
      + 995 pi_d_a9_a2_proc_2 + 995 pi_d_a9_a3_proc_2 + 995 pi_d_a9_a4_proc_2
      + 995 pi_d_a9_a6_proc_2 + 995 pi_d_a9_a7_proc_2 + 995 pi_d_a9_a8_proc_2
      + pi_y1_a9 + pi_y2_a9_proc_2 >= 0

Bounds
       pi_y1_a0 Free
       pi_y1_a1 Free
       pi_y1_a2 Free
       pi_y1_a3 Free
       pi_y1_a4 Free
       pi_y1_a5 Free
       pi_y1_a6 Free
       pi_y1_a7 Free
       pi_y1_a8 Free
       pi_y1_a9 Free
End
