benchmark/results/graph__10-1000-0.10-03_8/graph__10-1000-0.10-03_8_Quinton_Benders_sub.txt
solution for: Quinton Benders_dual_sub
objective: 0.000230415
status: OPTIMAL_SOLUTION(2)
pi_p_a1_a0=0.000
pi_p_a0_a6=0.000
pi_p_a7_a5=0.000
pi_d_a4_a1_proc_2=0.000
pi_d_a5_a4_proc_0=0.000
pi_d_a6_a7_proc_2=0.000
pi_y1_a0=-0.203
pi_y1_a1=-0.141
pi_y1_a4=-0.176
pi_y1_a5=-0.196
pi_y1_a6=-0.179
pi_y1_a7=-0.105
pi_y2_a4_proc_0=0.176
pi_y2_a4_proc_1=0.176
pi_y2_a6_proc_0=0.179
pi_y2_a6_proc_1=0.179
